solution status: optimal solution found
objective value:                    -237.768888888889
C57755                                              1 	(obj:0)
C0035                                               1 	(obj:-1)
C0424                                               1 	(obj:-1)
C0605                                               1 	(obj:-1)
C0779                                               1 	(obj:-1)
C4407                                               1 	(obj:-1)
C4555                                               1 	(obj:-1)
C4814                                               1 	(obj:-1)
C5227                                               1 	(obj:-1)
C5975                                               1 	(obj:-1)
C6274                                               1 	(obj:-1)
C6376                                               1 	(obj:-1)
C6853                                               1 	(obj:-1)
C7650                                               1 	(obj:-1)
C7865                                               1 	(obj:-1)
C8148                                               1 	(obj:-1)
C8331                                               1 	(obj:-1)
C8467                                               1 	(obj:-1)
C8622                                               1 	(obj:-1)
C8825                                               1 	(obj:-1)
C9105                                               1 	(obj:-1)
C9246                                               1 	(obj:-1)
C9453                                               1 	(obj:-1)
C9504                                               1 	(obj:-1)
C9773                                               1 	(obj:-1)
C9959                                               1 	(obj:-1)
C10231                                              1 	(obj:-1)
C11006                                              1 	(obj:-1)
C11257                                              1 	(obj:-1)
C11416                                              1 	(obj:-1)
C11687                                              1 	(obj:-1)
C11807                                              1 	(obj:-1)
C11967                                              1 	(obj:-1)
C12132                                              1 	(obj:-1)
C12418                                              1 	(obj:-1)
C12484                                              1 	(obj:-1)
C12687                                              1 	(obj:-1)
C12965                                              1 	(obj:-1)
C13025                                              1 	(obj:-1)
C13346                                              1 	(obj:-1)
C13520                                              1 	(obj:-1)
C13727                                              1 	(obj:-1)
C13843                                              1 	(obj:-1)
C14103                                              1 	(obj:-1)
C14291                                              1 	(obj:-1)
C14369                                              1 	(obj:-1)
C14551                                              1 	(obj:-1)
C14725                                              1 	(obj:-1)
C15010                                              1 	(obj:-1)
C15114                                              1 	(obj:-1)
C15431                                              1 	(obj:-1)
C15610                                              1 	(obj:-1)
C15731                                              1 	(obj:-1)
C16003                                              1 	(obj:-1)
C16044                                              1 	(obj:-1)
C16248                                              1 	(obj:-1)
C16444                                              1 	(obj:-1)
C16713                                              1 	(obj:-1)
C16885                                              1 	(obj:-1)
C17090                                              1 	(obj:-1)
C18048                                              1 	(obj:-1)
C18168                                              1 	(obj:-1)
C18536                                              1 	(obj:-1)
C19389                                              1 	(obj:-1)
C19489                                              1 	(obj:-1)
C19751                                              1 	(obj:-1)
C19949                                              1 	(obj:-1)
C20118                                              1 	(obj:-1)
C20264                                              1 	(obj:-1)
C20451                                              1 	(obj:-1)
C20623                                              1 	(obj:-1)
C20732                                              1 	(obj:-1)
C21030                                              1 	(obj:-1)
C21186                                              1 	(obj:-1)
C21384                                              1 	(obj:-1)
C21678                                              1 	(obj:-1)
C21819                                              1 	(obj:-1)
C22109                                              1 	(obj:-1)
C22297                                              1 	(obj:-1)
C22435                                              1 	(obj:-1)
C22656                                              1 	(obj:-1)
C22737                                              1 	(obj:-1)
C22989                                              1 	(obj:-1)
C23226                                              1 	(obj:-1)
C23374                                              1 	(obj:-1)
C23495                                              1 	(obj:-1)
C23694                                              1 	(obj:-1)
C23845                                              1 	(obj:-1)
C24115                                              1 	(obj:-1)
C24972                                              1 	(obj:-1)
C25194                                              1 	(obj:-1)
C25422                                              1 	(obj:-1)
C25492                                              1 	(obj:-1)
C25750                                              1 	(obj:-1)
C25970                                              1 	(obj:-1)
C26313                                              1 	(obj:-1)
C26456                                              1 	(obj:-1)
C26578                                              1 	(obj:-1)
C26759                                              1 	(obj:-1)
C26990                                              1 	(obj:-1)
C27264                                              1 	(obj:-1)
C27337                                              1 	(obj:-1)
C27579                                              1 	(obj:-1)
C27771                                              1 	(obj:-1)
C27958                                              1 	(obj:-1)
C29626                                              1 	(obj:-1)
C29634                                              1 	(obj:-1)
C29708                                              1 	(obj:-1)
C29855                                              1 	(obj:-1)
C30063                                              1 	(obj:-1)
C30513                                              1 	(obj:-1)
C30740                                              1 	(obj:-1)
C30784                                              1 	(obj:-1)
C30828                                              1 	(obj:-1)
C31335                                              1 	(obj:-1)
C31428                                              1 	(obj:-1)
C31492                                              1 	(obj:-1)
C31884                                              1 	(obj:-1)
C32067                                              1 	(obj:-1)
C32150                                              1 	(obj:-1)
C32221                                              1 	(obj:-1)
C32514                                              1 	(obj:-1)
C32747                                              1 	(obj:-1)
C32944                                              1 	(obj:-1)
C32979                                              1 	(obj:-1)
C33511                                              1 	(obj:-1)
C33792                                              1 	(obj:-1)
C34242                                              1 	(obj:-1)
C34290                                              1 	(obj:-1)
C34637                                              1 	(obj:-1)
C34658                                              1 	(obj:-1)
C35245                                              1 	(obj:-1)
C35325                                              1 	(obj:-1)
C35596                                              1 	(obj:-1)
C36307                                              1 	(obj:-1)
C36418                                              1 	(obj:-1)
C36536                                              1 	(obj:-1)
C36725                                              1 	(obj:-1)
C36882                                              1 	(obj:-1)
C37176                                              1 	(obj:-1)
C37223                                              1 	(obj:-1)
C37431                                              1 	(obj:-1)
C37716                                              1 	(obj:-1)
C37893                                              1 	(obj:-1)
C38518                                              1 	(obj:-1)
C38697                                              1 	(obj:-1)
C38915                                              1 	(obj:-1)
C39151                                              1 	(obj:-1)
C40010                                              1 	(obj:-1)
C40124                                              1 	(obj:-1)
C40307                                              1 	(obj:-1)
C40460                                              1 	(obj:-1)
C40681                                              1 	(obj:-1)
C40888                                              1 	(obj:-1)
C40944                                              1 	(obj:-1)
C41259                                              1 	(obj:-1)
C41343                                              1 	(obj:-1)
C41549                                              1 	(obj:-1)
C41622                                              1 	(obj:-1)
C41904                                              1 	(obj:-1)
C42085                                              1 	(obj:-1)
C42282                                              1 	(obj:-1)
C42923                                              1 	(obj:-1)
C43120                                              1 	(obj:-1)
C43225                                              1 	(obj:-1)
C43529                                              1 	(obj:-1)
C43630                                              1 	(obj:-1)
C43896                                              1 	(obj:-1)
C43940                                              1 	(obj:-1)
C44124                                              1 	(obj:-1)
C44313                                              1 	(obj:-1)
C44564                                              1 	(obj:-1)
C44643                                              1 	(obj:-1)
C44784                                              1 	(obj:-1)
C44961                                              1 	(obj:-1)
C45207                                              1 	(obj:-1)
C45362                                              1 	(obj:-1)
C45516                                              1 	(obj:-1)
C45772                                              1 	(obj:-1)
C45951                                              1 	(obj:-1)
C46166                                              1 	(obj:-1)
C46389                                              1 	(obj:-1)
C46654                                              1 	(obj:-1)
C46730                                              1 	(obj:-1)
C46900                                              1 	(obj:-1)
C47103                                              1 	(obj:-1)
C47295                                              1 	(obj:-1)
C47496                                              1 	(obj:-1)
C47550                                              1 	(obj:-1)
C47847                                              1 	(obj:-1)
C48020                                              1 	(obj:-1)
C48083                                              1 	(obj:-1)
C48387                                              1 	(obj:-1)
C48455                                              1 	(obj:-1)
C49258                                              1 	(obj:-1)
C49380                                              1 	(obj:-1)
C49542                                              1 	(obj:-1)
C50198                                              1 	(obj:-1)
C50535                                              1 	(obj:-1)
C50587                                              1 	(obj:-1)
C50740                                              1 	(obj:-1)
C51041                                              1 	(obj:-1)
C51147                                              1 	(obj:-1)
C51362                                              1 	(obj:-1)
C51481                                              1 	(obj:-1)
C51707                                              1 	(obj:-1)
C51944                                              1 	(obj:-1)
C52056                                              1 	(obj:-1)
C52279                                              1 	(obj:-1)
C52357                                              1 	(obj:-1)
C52536                                              1 	(obj:-1)
C52817                                              1 	(obj:-1)
C52950                                              1 	(obj:-1)
C53022                                              1 	(obj:-1)
C53276                                              1 	(obj:-1)
C53470                                              1 	(obj:-1)
C53582                                              1 	(obj:-1)
C53753                                              1 	(obj:-1)
C53895                                              1 	(obj:-1)
C54148                                              1 	(obj:-1)
C54404                                              1 	(obj:-1)
C54505                                              1 	(obj:-1)
C54651                                              1 	(obj:-1)
C54770                                              1 	(obj:-1)
C54992                                              1 	(obj:-1)
C55273                                              1 	(obj:-1)
C55323                                              1 	(obj:-1)
C55488                                              1 	(obj:-1)
C55657                                              1 	(obj:-1)
C55976                                              1 	(obj:-1)
C56156                                              1 	(obj:-1)
C56200                                              1 	(obj:-1)
C56429                                              1 	(obj:-1)
C56533                                              1 	(obj:-1)
C56729                                              1 	(obj:-1)
C56988                                              1 	(obj:-1)
C57077                                              1 	(obj:-1)
C57353                                              1 	(obj:-1)
C57445                                              1 	(obj:-1)
C57577                                              1 	(obj:0.0022222222)
C57578                                              1 	(obj:0.0066666667)
C57583                                              1 	(obj:0.0022222222)
C57584                                              1 	(obj:0.0066666667)
C57586                                              1 	(obj:0.0066666667)
C57588                                              1 	(obj:0.0022222222)
C57590                                              1 	(obj:0.0111111111)
C57591                                              1 	(obj:0.0111111111)
C57592                                              1 	(obj:0.0022222222)
C57593                                              1 	(obj:0.0022222222)
C57594                                              1 	(obj:0.0022222222)
C57595                                              1 	(obj:0.0022222222)
C57597                                              1 	(obj:0.0022222222)
C57598                                              1 	(obj:0.0022222222)
C57599                                              1 	(obj:0.0022222222)
C57600                                              1 	(obj:0.0066666667)
C57601                                              1 	(obj:0.0111111111)
C57602                                              1 	(obj:0.0111111111)
C57603                                              1 	(obj:0.0111111111)
C57604                                              1 	(obj:0.0022222222)
C57605                                              1 	(obj:0.0022222222)
C57606                                              1 	(obj:0.0111111111)
C57607                                              1 	(obj:0.0111111111)
C57609                                              1 	(obj:0.0066666667)
C57611                                              1 	(obj:0.0111111111)
C57612                                              1 	(obj:0.0111111111)
C57613                                              1 	(obj:0.0066666667)
C57614                                              1 	(obj:0.0111111111)
C57615                                              1 	(obj:0.0066666667)
C57616                                              1 	(obj:0.0111111111)
C57618                                              1 	(obj:0.0066666667)
C57619                                              1 	(obj:0.0066666667)
C57620                                              1 	(obj:0.0111111111)
C57621                                              1 	(obj:0.0111111111)
C57622                                              1 	(obj:0)
C57626                                              1 	(obj:0)
C57641                                              1 	(obj:0)
C57644                                              1 	(obj:0)
C57650                                              1 	(obj:0)
C57656                                              1 	(obj:0)
C57662                                              1 	(obj:0)
C57665                                              1 	(obj:0)
C57668                                              1 	(obj:0)
C57671                                              1 	(obj:0)
C57674                                              1 	(obj:0)
C57677                                              1 	(obj:0)
C57683                                              1 	(obj:0)
C57686                                              1 	(obj:0)
C57689                                              1 	(obj:0)
C57692                                              1 	(obj:0)
C57695                                              1 	(obj:0)
C57698                                              1 	(obj:0)
C57701                                              1 	(obj:0)
C57704                                              1 	(obj:0)
C57707                                              1 	(obj:0)
C57710                                              1 	(obj:0)
C57713                                              1 	(obj:0)
C57719                                              1 	(obj:0)
C57725                                              1 	(obj:0)
C57728                                              1 	(obj:0)
C57731                                              1 	(obj:0)
C57734                                              1 	(obj:0)
C57737                                              1 	(obj:0)
C57740                                              1 	(obj:0)
C57746                                              1 	(obj:0)
C57748                                              1 	(obj:0)
C57752                                              1 	(obj:0)
